Test: battleship-10-19-sat.cnf
Options: 
WARNING: for repeatability, setting FPU to use double precision
============================[ Problem Statistics ]=============================
|                                                                             |
|  Number of symmetries:           15                                         |
|  Number of invertingSyms:         0                                         |
|  Number of variables:           190                                         |
|  Number of clauses:             955                                         |
|  Parse time:                   0.00 s                                       |
|                                                                             |
============================[ Search Statistics ]==============================
| Conflicts |          ORIGINAL         |          LEARNT          | Progress |
|           |    Vars  Clauses Literals |    Limit  Clauses Lit/Cl |          |
===============================================================================
|       100 |     190      955     3610 |      350      100     71 |  0.003 % |
===============================================================================
restarts              : 2
conflicts             : 156            (39000 /sec)
symconflicts          : 6              (1500 /sec)
decisions             : 462            (0.00 % random) (115500 /sec)
propagations          : 2588           (647000 /sec)
sympropagations       : 9              (2250 /sec)
conflict literals     : 10325          (0.11 % deleted)
literals     : 10325          (0.11 % deleted)

HEURISTIC USAGES
random                : 0           
activity w/ lookahead : 0           
activity no lookahead : 0           
original sp           : 461         
sym count             : 0           

Memory used           : 5.00 MB
CPU time              : 0.004 s

SATISFIABLE
